
# 5623	6	6	6	0.00	5.00
# 4936	6	6	6	0.00	5.00
# 14694	6	6	6	0.00	5.00
# 5206	6	6	6	0.00	5.00
param k := 4; 	3	4	4	param k := 4; 	3	4	4	6.00	6.00	6.00	6.00
# 11180	6	6	6	6.00	6.00	# 6843	6	6	6	6.00	6.00	# 1722	6	6	6	6.00	6.00	6.00
# 27796	6	6	6	6.00	6.00	6.00
# 17810	6	6	6	6.00	6.00	7.00	7.00
